
Gurobi 11.0.3 (mac64[arm], gurobi_cl) logging started Mon Nov  4 08:43:04 2024

Set parameter TimeLimit to value 600
Set parameter NoRelHeurTime to value 600
Set parameter LogFile to value "gurobi.log"
Using license file /Users/sakai/gurobi.lic
Restricted license - for non-production use only - expires 2025-11-24

Gurobi Optimizer version 11.0.3 build v11.0.3rc0 (mac64[arm] - Darwin 22.6.0 22H123)
Copyright (c) 2024, Gurobi Optimization, LLC

Read LP format model from file ../../../miplib2024_submission/instances.20241102/bnn_mnist_7_label9_adversarial_norm_0.lp
Reading time = 0.10 seconds
: 1193 rows, 1295 columns, 397992 nonzeros

CPU model: Apple M1
Thread count: 8 physical cores, 8 logical processors, using up to 8 threads

Optimize a model with 1193 rows, 1295 columns and 397992 nonzeros
Model fingerprint: 0x143aa88e
Variable types: 1 continuous, 1294 integer (1294 binary)
Coefficient statistics:
  Matrix range     [1e+00, 5e+02]
  Objective range  [1e+00, 9e+01]
  Bounds range     [1e+00, 1e+00]
  RHS range        [1e+00, 5e+02]
Presolve removed 99 rows and 89 columns
Presolve time: 0.37s
Presolved: 1094 rows, 1206 columns, 351284 nonzeros
Variable types: 0 continuous, 1206 integer (1190 binary)
Starting NoRel heuristic
Found phase-1 solution: relaxation 434
Found phase-1 solution: relaxation 431
Found phase-1 solution: relaxation 290
Found phase-1 solution: relaxation 287
Found phase-1 solution: relaxation 260
Found phase-1 solution: relaxation 228
Found phase-1 solution: relaxation 190
Found phase-1 solution: relaxation 119
Found phase-1 solution: relaxation 85
Found phase-1 solution: relaxation 34
Found phase-1 solution: relaxation 0
Found heuristic solution: objective 214.0000000
Found heuristic solution: objective 203.0000000
Transition to phase 2
Found heuristic solution: objective 196.0000000
Found heuristic solution: objective 183.0000000
Found heuristic solution: objective 178.0000000
Found heuristic solution: objective 174.0000000
Found heuristic solution: objective 167.0000000
Found heuristic solution: objective 157.0000000
Found heuristic solution: objective 150.0000000
Found heuristic solution: objective 142.0000000
Found heuristic solution: objective 139.0000000
Found heuristic solution: objective 126.0000000
Found heuristic solution: objective 114.0000000
Found heuristic solution: objective 112.0000000
Found heuristic solution: objective 108.0000000
Found heuristic solution: objective 99.0000000
Found heuristic solution: objective 97.0000000
Found heuristic solution: objective 93.0000000
Found heuristic solution: objective 89.0000000
Found heuristic solution: objective 88.0000000
Found heuristic solution: objective 87.0000000
Found heuristic solution: objective 85.0000000
Elapsed time for NoRel heuristic: 5s (best bound 0)
Found heuristic solution: objective 84.0000000
Found heuristic solution: objective 83.0000000
Found heuristic solution: objective 81.0000000
Found heuristic solution: objective 80.0000000
Found heuristic solution: objective 76.0000000
Found heuristic solution: objective 75.0000000
Found heuristic solution: objective 73.0000000
Found heuristic solution: objective 69.0000000
Found heuristic solution: objective 67.0000000
Found heuristic solution: objective 65.0000000
Found heuristic solution: objective 63.0000000
Elapsed time for NoRel heuristic: 10s (best bound 0)
Found heuristic solution: objective 61.0000000
Found heuristic solution: objective 60.0000000
Found heuristic solution: objective 58.0000000
Found heuristic solution: objective 57.0000000
Found heuristic solution: objective 56.0000000
Elapsed time for NoRel heuristic: 16s (best bound 0)
Found heuristic solution: objective 55.0000000
Elapsed time for NoRel heuristic: 21s (best bound 0)
Found heuristic solution: objective 54.0000000
Elapsed time for NoRel heuristic: 27s (best bound 0)
Found heuristic solution: objective 52.0000000
Elapsed time for NoRel heuristic: 32s (best bound 0)
Found heuristic solution: objective 41.0000000
Elapsed time for NoRel heuristic: 41s (best bound 0)
Found heuristic solution: objective 40.0000000
Found heuristic solution: objective 39.0000000
Found heuristic solution: objective 38.0000000
Elapsed time for NoRel heuristic: 46s (best bound 0)
Found heuristic solution: objective 36.0000000
Elapsed time for NoRel heuristic: 53s (best bound 0)
Found heuristic solution: objective 35.0000000
Found heuristic solution: objective 34.0000000
Found heuristic solution: objective 33.0000000
Elapsed time for NoRel heuristic: 58s (best bound 0)
Found heuristic solution: objective 31.0000000
Elapsed time for NoRel heuristic: 65s (best bound 0)
Found heuristic solution: objective 28.0000000
Found heuristic solution: objective 25.0000000
Elapsed time for NoRel heuristic: 74s (best bound 0)
Found heuristic solution: objective 24.0000000
Found heuristic solution: objective 21.0000000
Elapsed time for NoRel heuristic: 82s (best bound 0)
Found heuristic solution: objective 20.0000000
Found heuristic solution: objective 18.0000000
Elapsed time for NoRel heuristic: 89s (best bound 0)
Elapsed time for NoRel heuristic: 98s (best bound 0)
Elapsed time for NoRel heuristic: 103s (best bound 0)
Found heuristic solution: objective 16.0000000
Elapsed time for NoRel heuristic: 121s (best bound 0)
Found heuristic solution: objective 15.0000000
Found heuristic solution: objective 13.0000000
Elapsed time for NoRel heuristic: 130s (best bound 0)
Found heuristic solution: objective 12.0000000
Elapsed time for NoRel heuristic: 136s (best bound 0)
Elapsed time for NoRel heuristic: 144s (best bound 0)
Elapsed time for NoRel heuristic: 150s (best bound 0)
Elapsed time for NoRel heuristic: 170s (best bound 0)
Elapsed time for NoRel heuristic: 191s (best bound 0)
Elapsed time for NoRel heuristic: 206s (best bound 0)
Elapsed time for NoRel heuristic: 229s (best bound 0)
Elapsed time for NoRel heuristic: 249s (best bound 0)
Elapsed time for NoRel heuristic: 278s (best bound 0)
Elapsed time for NoRel heuristic: 308s (best bound 0)
Elapsed time for NoRel heuristic: 884s (best bound 0)

Explored 0 nodes (0 simplex iterations) in 884.09 seconds (327.34 work units)
Thread count was 8 (of 8 available processors)

Solution count 10: 12 13 15 ... 28

Time limit reached
Best objective 1.200000000000e+01, best bound 0.000000000000e+00, gap 100.0000%

Wrote result file 'bnn_mnist_7_label9_adversarial_norm_0.sol'

